p cnf 33 29
-1 12 13 29 0 
-2 10 21 29 0 
-1 12 13 30 0 
-3 29 0 
-2 10 21 29 0 
-4 15 28 -5 30 0 
-6 -7 -4 15 28 29 0 
-8 14 29 0 
-9 23 25 30 0 
-10 2 21 31 0 
-11 16 18 24 26 30 0 
-12 1 13 30 0 
-13 1 12 30 0 
-14 8 30 0 
-15 4 28 30 0 
-16 11 18 24 26 30 0 
-17 -3 29 0 
-14 8 29 0 
-18 11 16 24 26 -8 14 -19 31 0 
-16 11 18 24 26 29 0 
-20 -21 2 10 31 0 
-22 29 0 
-23 9 25 29 0 
-24 11 16 18 26 -25 9 23 31 0 
-2 10 21 30 0 
-26 11 16 18 24 -25 9 23 31 0 
-17 32 0 
-22 -27 -28 4 15 33 0 
-22 -1 12 13 32 0 
